Input: ticf-13crafc.prec25.dzn
============================================================
Total Runtime: 2.3172 seconds
Input parsing: 0.0007 seconds
Constraint building: 0.5296 seconds
MaxSAT solving: 1.4133 seconds
============================================================

Total variables: 175946
Total clauses: 370244
MaxSAT found with cost: 0
NO SOLUTION FOUND
